; Copyright (c) 2026 The RIINA Authors. All rights reserved.
; Copyright (c) 2026 The RIINA Authors.
; Auto-generated from 02_FORMAL/coq/properties/ValRelMonotone.v (7 assertions)
; Generated by scripts/generate-full-stack.py
; Module: ValRelMonotone

(set-logic ALL)
(set-option :produce-models true)

; val_rel_le_monotone (matches Coq: Theorem val_rel_le_monotone)
(assert (= true true)) ; val_rel_le_monotone [untranslatable]

; val_rel_le_pred (matches Coq: Lemma val_rel_le_pred)
(assert (= true true)) ; val_rel_le_pred [untranslatable]

; val_rel_le_trans_mono (matches Coq: Lemma val_rel_le_trans_mono)
(assert (= true true)) ; val_rel_le_trans_mono [untranslatable]

; val_rel_le_max (matches Coq: Lemma val_rel_le_max)
(assert (= true true)) ; val_rel_le_max [untranslatable]

; val_rel_le_from_max (matches Coq: Lemma val_rel_le_from_max)
(assert (= true true)) ; val_rel_le_from_max [untranslatable]

; val_rel_le_to_min (matches Coq: Lemma val_rel_le_to_min)
(assert (= true true)) ; val_rel_le_to_min [untranslatable]

; val_rel_le_to_min_r (matches Coq: Lemma val_rel_le_to_min_r)
(assert (= true true)) ; val_rel_le_to_min_r [untranslatable]

; Verify all assertions are satisfiable
(check-sat)
(exit)
